Minimize 
 obj: +1 z
 Subject to
cobj: -1 z +64 y#0 +64 y#1 +64 y#2 +64 y#3 +64 y#4 +64 y#5 +64 y#6 +64 y#7 +64 y#8 +64 y#9 +64 y#10 +64 y#11 +64 y#12 +64 y#13 +64 y#14 +64 y#15 +64 y#16 +64 y#17 +64 y#18 +64 y#19 +64 y#20 +64 y#21 +64 y#22 +64 y#23 +64 y#24 +64 y#25 +64 y#26 +64 y#27 +64 y#28 +64 y#29 +64 y#30 +64 y#31 -32 y#32 -32 y#33 -32 y#34 -64 y#35 -32 y#36 -32 y#37 -64 y#38 -32 y#39 -32 y#40 -64 y#41 -32 y#42 -32 y#43 -64 y#44 -32 y#45 -32 y#46 -64 y#47 -32 y#48 -32 y#49 -64 y#50 -32 y#51 -32 y#52 -64 y#53 -32 y#54 -32 y#55 -64 y#56 -32 y#57 -32 y#58 -64 y#59 -32 y#60 -32 y#61 -64 y#62 -32 y#63 -32 y#64 -64 y#65 -32 y#66 -32 y#67 -64 y#68 -32 y#69 -32 y#70 -64 y#71 -32 y#72 -32 y#73 -64 y#74 -32 y#75 -32 y#76 -64 y#77 -32 y#78 -32 y#79 -64 y#80 -32 y#81 -32 y#82 -64 y#83 -32 y#84 -32 y#85 -64 y#86 -32 y#87 -32 y#88 -64 y#89 -32 y#90 -32 y#91 -64 y#92 -32 y#93 -32 y#94 -64 y#95 -32 y#96 -32 y#97 -64 y#98 -32 y#99 -32 y#100 -64 y#101 -32 y#102 -32 y#103 -64 y#104 -32 y#105 -32 y#106 -64 y#107 -32 y#108 -32 y#109 -64 y#110 -32 y#111 -32 y#112 -64 y#113 -32 y#114 -32 y#115 -64 y#116 -32 y#117 -32 y#118 -64 y#119 -32 y#120 -32 y#121 -64 y#122 -32 y#123 -32 y#124 -64 y#125 -32 y#126 -32 y#127 -32 y#128 +16 y#129 +24 y#130 +16 y#131 +32 y#132 +48 y#133 +16 y#134 +48 y#135 +48 y#136 +16 y#137 +48 y#138 +48 y#139 +16 y#140 +48 y#141 +48 y#142 +16 y#143 +48 y#144 +48 y#145 +16 y#146 +48 y#147 +48 y#148 +16 y#149 +48 y#150 +48 y#151 +16 y#152 +48 y#153 +48 y#154 +16 y#155 +48 y#156 +48 y#157 +16 y#158 +48 y#159 +48 y#160 +16 y#161 +48 y#162 +48 y#163 +16 y#164 +48 y#165 +48 y#166 +16 y#167 +48 y#168 +48 y#169 +16 y#170 +48 y#171 +48 y#172 +16 y#173 +48 y#174 +48 y#175 +16 y#176 +48 y#177 +48 y#178 +16 y#179 +48 y#180 +48 y#181 +16 y#182 +48 y#183 +48 y#184 +16 y#185 +48 y#186 +48 y#187 +16 y#188 +48 y#189 +48 y#190 +16 y#191 +48 y#192 +48 y#193 +16 y#194 +48 y#195 +48 y#196 +16 y#197 +48 y#198 +48 y#199 +16 y#200 +48 y#201 +48 y#202 +16 y#203 +48 y#204 +48 y#205 +16 y#206 +48 y#207 +48 y#208 +16 y#209 +48 y#210 +48 y#211 +16 y#212 +48 y#213 +48 y#214 +16 y#215 +48 y#216 +48 y#217 +16 y#218 +48 y#219 +48 y#220 +16 y#221 +48 y#222 +48 y#223 +16 y#224 +32 y#225 +24 y#226 +16 y#227 -12 y#228 -24 y#229 -36 y#230 -48 y#231 -48 y#232 -48 y#233 -48 y#234 -48 y#235 -48 y#236 -48 y#237 -48 y#238 -48 y#239 -48 y#240 -48 y#241 -48 y#242 -48 y#243 -48 y#244 -48 y#245 -48 y#246 -48 y#247 -48 y#248 -48 y#249 -48 y#250 -48 y#251 -48 y#252 -48 y#253 -48 y#254 -48 y#255 -48 y#256 -48 y#257 -48 y#258 -48 y#259 -36 y#260 -24 y#261 -12 y#262 <= 0
cst0: y#0 - x#1 <= 0
cst1: y#0 - x#2 <= 0
cst2: y#0 - x#3 <= 0
cst3: y#0 - x#4 <= 0
cst4: x#1 + x#2 + x#3 + x#4 - y#0 <= 3
cst5: y#1 - x#2 <= 0
cst6: y#1 - x#3 <= 0
cst7: y#1 - x#4 <= 0
cst8: y#1 - x#5 <= 0
cst9: x#2 + x#3 + x#4 + x#5 - y#1 <= 3
cst10: y#2 - x#3 <= 0
cst11: y#2 - x#4 <= 0
cst12: y#2 - x#5 <= 0
cst13: y#2 - x#6 <= 0
cst14: x#3 + x#4 + x#5 + x#6 - y#2 <= 3
cst15: y#3 - x#4 <= 0
cst16: y#3 - x#5 <= 0
cst17: y#3 - x#6 <= 0
cst18: y#3 - x#7 <= 0
cst19: x#4 + x#5 + x#6 + x#7 - y#3 <= 3
cst20: y#4 - x#5 <= 0
cst21: y#4 - x#6 <= 0
cst22: y#4 - x#7 <= 0
cst23: y#4 - x#8 <= 0
cst24: x#5 + x#6 + x#7 + x#8 - y#4 <= 3
cst25: y#5 - x#6 <= 0
cst26: y#5 - x#7 <= 0
cst27: y#5 - x#8 <= 0
cst28: y#5 - x#9 <= 0
cst29: x#6 + x#7 + x#8 + x#9 - y#5 <= 3
cst30: y#6 - x#7 <= 0
cst31: y#6 - x#8 <= 0
cst32: y#6 - x#9 <= 0
cst33: y#6 - x#10 <= 0
cst34: x#7 + x#8 + x#9 + x#10 - y#6 <= 3
cst35: y#7 - x#8 <= 0
cst36: y#7 - x#9 <= 0
cst37: y#7 - x#10 <= 0
cst38: y#7 - x#11 <= 0
cst39: x#8 + x#9 + x#10 + x#11 - y#7 <= 3
cst40: y#8 - x#9 <= 0
cst41: y#8 - x#10 <= 0
cst42: y#8 - x#11 <= 0
cst43: y#8 - x#12 <= 0
cst44: x#9 + x#10 + x#11 + x#12 - y#8 <= 3
cst45: y#9 - x#10 <= 0
cst46: y#9 - x#11 <= 0
cst47: y#9 - x#12 <= 0
cst48: y#9 - x#13 <= 0
cst49: x#10 + x#11 + x#12 + x#13 - y#9 <= 3
cst50: y#10 - x#11 <= 0
cst51: y#10 - x#12 <= 0
cst52: y#10 - x#13 <= 0
cst53: y#10 - x#14 <= 0
cst54: x#11 + x#12 + x#13 + x#14 - y#10 <= 3
cst55: y#11 - x#12 <= 0
cst56: y#11 - x#13 <= 0
cst57: y#11 - x#14 <= 0
cst58: y#11 - x#15 <= 0
cst59: x#12 + x#13 + x#14 + x#15 - y#11 <= 3
cst60: y#12 - x#13 <= 0
cst61: y#12 - x#14 <= 0
cst62: y#12 - x#15 <= 0
cst63: y#12 - x#16 <= 0
cst64: x#13 + x#14 + x#15 + x#16 - y#12 <= 3
cst65: y#13 - x#14 <= 0
cst66: y#13 - x#15 <= 0
cst67: y#13 - x#16 <= 0
cst68: y#13 - x#17 <= 0
cst69: x#14 + x#15 + x#16 + x#17 - y#13 <= 3
cst70: y#14 - x#15 <= 0
cst71: y#14 - x#16 <= 0
cst72: y#14 - x#17 <= 0
cst73: y#14 - x#18 <= 0
cst74: x#15 + x#16 + x#17 + x#18 - y#14 <= 3
cst75: y#15 - x#16 <= 0
cst76: y#15 - x#17 <= 0
cst77: y#15 - x#18 <= 0
cst78: y#15 - x#19 <= 0
cst79: x#16 + x#17 + x#18 + x#19 - y#15 <= 3
cst80: y#16 - x#17 <= 0
cst81: y#16 - x#18 <= 0
cst82: y#16 - x#19 <= 0
cst83: y#16 - x#20 <= 0
cst84: x#17 + x#18 + x#19 + x#20 - y#16 <= 3
cst85: y#17 - x#18 <= 0
cst86: y#17 - x#19 <= 0
cst87: y#17 - x#20 <= 0
cst88: y#17 - x#21 <= 0
cst89: x#18 + x#19 + x#20 + x#21 - y#17 <= 3
cst90: y#18 - x#19 <= 0
cst91: y#18 - x#20 <= 0
cst92: y#18 - x#21 <= 0
cst93: y#18 - x#22 <= 0
cst94: x#19 + x#20 + x#21 + x#22 - y#18 <= 3
cst95: y#19 - x#20 <= 0
cst96: y#19 - x#21 <= 0
cst97: y#19 - x#22 <= 0
cst98: y#19 - x#23 <= 0
cst99: x#20 + x#21 + x#22 + x#23 - y#19 <= 3
cst100: y#20 - x#21 <= 0
cst101: y#20 - x#22 <= 0
cst102: y#20 - x#23 <= 0
cst103: y#20 - x#24 <= 0
cst104: x#21 + x#22 + x#23 + x#24 - y#20 <= 3
cst105: y#21 - x#22 <= 0
cst106: y#21 - x#23 <= 0
cst107: y#21 - x#24 <= 0
cst108: y#21 - x#25 <= 0
cst109: x#22 + x#23 + x#24 + x#25 - y#21 <= 3
cst110: y#22 - x#23 <= 0
cst111: y#22 - x#24 <= 0
cst112: y#22 - x#25 <= 0
cst113: y#22 - x#26 <= 0
cst114: x#23 + x#24 + x#25 + x#26 - y#22 <= 3
cst115: y#23 - x#24 <= 0
cst116: y#23 - x#25 <= 0
cst117: y#23 - x#26 <= 0
cst118: y#23 - x#27 <= 0
cst119: x#24 + x#25 + x#26 + x#27 - y#23 <= 3
cst120: y#24 - x#25 <= 0
cst121: y#24 - x#26 <= 0
cst122: y#24 - x#27 <= 0
cst123: y#24 - x#28 <= 0
cst124: x#25 + x#26 + x#27 + x#28 - y#24 <= 3
cst125: y#25 - x#26 <= 0
cst126: y#25 - x#27 <= 0
cst127: y#25 - x#28 <= 0
cst128: y#25 - x#29 <= 0
cst129: x#26 + x#27 + x#28 + x#29 - y#25 <= 3
cst130: y#26 - x#27 <= 0
cst131: y#26 - x#28 <= 0
cst132: y#26 - x#29 <= 0
cst133: y#26 - x#30 <= 0
cst134: x#27 + x#28 + x#29 + x#30 - y#26 <= 3
cst135: y#27 - x#28 <= 0
cst136: y#27 - x#29 <= 0
cst137: y#27 - x#30 <= 0
cst138: y#27 - x#31 <= 0
cst139: x#28 + x#29 + x#30 + x#31 - y#27 <= 3
cst140: y#28 - x#29 <= 0
cst141: y#28 - x#30 <= 0
cst142: y#28 - x#31 <= 0
cst143: y#28 - x#32 <= 0
cst144: x#29 + x#30 + x#31 + x#32 - y#28 <= 3
cst145: y#29 - x#30 <= 0
cst146: y#29 - x#31 <= 0
cst147: y#29 - x#32 <= 0
cst148: y#29 - x#33 <= 0
cst149: x#30 + x#31 + x#32 + x#33 - y#29 <= 3
cst150: y#30 - x#31 <= 0
cst151: y#30 - x#32 <= 0
cst152: y#30 - x#33 <= 0
cst153: y#30 - x#34 <= 0
cst154: x#31 + x#32 + x#33 + x#34 - y#30 <= 3
cst155: y#31 - x#32 <= 0
cst156: y#31 - x#33 <= 0
cst157: y#31 - x#34 <= 0
cst158: y#31 - x#35 <= 0
cst159: x#32 + x#33 + x#34 + x#35 - y#31 <= 3
cst160: y#32 - x#1 <= 0
cst161: y#32 - x#2 <= 0
cst162: y#32 - x#3 <= 0
cst163: x#1 + x#2 + x#3 - y#32 <= 2
cst164: y#33 - x#1 <= 0
cst165: y#33 - x#2 <= 0
cst166: y#33 - x#4 <= 0
cst167: x#1 + x#2 + x#4 - y#33 <= 2
cst168: y#34 - x#1 <= 0
cst169: y#34 - x#3 <= 0
cst170: y#34 - x#4 <= 0
cst171: x#1 + x#3 + x#4 - y#34 <= 2
cst172: y#35 - x#2 <= 0
cst173: y#35 - x#3 <= 0
cst174: y#35 - x#4 <= 0
cst175: x#2 + x#3 + x#4 - y#35 <= 2
cst176: y#36 - x#2 <= 0
cst177: y#36 - x#3 <= 0
cst178: y#36 - x#5 <= 0
cst179: x#2 + x#3 + x#5 - y#36 <= 2
cst180: y#37 - x#2 <= 0
cst181: y#37 - x#4 <= 0
cst182: y#37 - x#5 <= 0
cst183: x#2 + x#4 + x#5 - y#37 <= 2
cst184: y#38 - x#3 <= 0
cst185: y#38 - x#4 <= 0
cst186: y#38 - x#5 <= 0
cst187: x#3 + x#4 + x#5 - y#38 <= 2
cst188: y#39 - x#3 <= 0
cst189: y#39 - x#4 <= 0
cst190: y#39 - x#6 <= 0
cst191: x#3 + x#4 + x#6 - y#39 <= 2
cst192: y#40 - x#3 <= 0
cst193: y#40 - x#5 <= 0
cst194: y#40 - x#6 <= 0
cst195: x#3 + x#5 + x#6 - y#40 <= 2
cst196: y#41 - x#4 <= 0
cst197: y#41 - x#5 <= 0
cst198: y#41 - x#6 <= 0
cst199: x#4 + x#5 + x#6 - y#41 <= 2
cst200: y#42 - x#4 <= 0
cst201: y#42 - x#5 <= 0
cst202: y#42 - x#7 <= 0
cst203: x#4 + x#5 + x#7 - y#42 <= 2
cst204: y#43 - x#4 <= 0
cst205: y#43 - x#6 <= 0
cst206: y#43 - x#7 <= 0
cst207: x#4 + x#6 + x#7 - y#43 <= 2
cst208: y#44 - x#5 <= 0
cst209: y#44 - x#6 <= 0
cst210: y#44 - x#7 <= 0
cst211: x#5 + x#6 + x#7 - y#44 <= 2
cst212: y#45 - x#5 <= 0
cst213: y#45 - x#6 <= 0
cst214: y#45 - x#8 <= 0
cst215: x#5 + x#6 + x#8 - y#45 <= 2
cst216: y#46 - x#5 <= 0
cst217: y#46 - x#7 <= 0
cst218: y#46 - x#8 <= 0
cst219: x#5 + x#7 + x#8 - y#46 <= 2
cst220: y#47 - x#6 <= 0
cst221: y#47 - x#7 <= 0
cst222: y#47 - x#8 <= 0
cst223: x#6 + x#7 + x#8 - y#47 <= 2
cst224: y#48 - x#6 <= 0
cst225: y#48 - x#7 <= 0
cst226: y#48 - x#9 <= 0
cst227: x#6 + x#7 + x#9 - y#48 <= 2
cst228: y#49 - x#6 <= 0
cst229: y#49 - x#8 <= 0
cst230: y#49 - x#9 <= 0
cst231: x#6 + x#8 + x#9 - y#49 <= 2
cst232: y#50 - x#7 <= 0
cst233: y#50 - x#8 <= 0
cst234: y#50 - x#9 <= 0
cst235: x#7 + x#8 + x#9 - y#50 <= 2
cst236: y#51 - x#7 <= 0
cst237: y#51 - x#8 <= 0
cst238: y#51 - x#10 <= 0
cst239: x#7 + x#8 + x#10 - y#51 <= 2
cst240: y#52 - x#7 <= 0
cst241: y#52 - x#9 <= 0
cst242: y#52 - x#10 <= 0
cst243: x#7 + x#9 + x#10 - y#52 <= 2
cst244: y#53 - x#8 <= 0
cst245: y#53 - x#9 <= 0
cst246: y#53 - x#10 <= 0
cst247: x#8 + x#9 + x#10 - y#53 <= 2
cst248: y#54 - x#8 <= 0
cst249: y#54 - x#9 <= 0
cst250: y#54 - x#11 <= 0
cst251: x#8 + x#9 + x#11 - y#54 <= 2
cst252: y#55 - x#8 <= 0
cst253: y#55 - x#10 <= 0
cst254: y#55 - x#11 <= 0
cst255: x#8 + x#10 + x#11 - y#55 <= 2
cst256: y#56 - x#9 <= 0
cst257: y#56 - x#10 <= 0
cst258: y#56 - x#11 <= 0
cst259: x#9 + x#10 + x#11 - y#56 <= 2
cst260: y#57 - x#9 <= 0
cst261: y#57 - x#10 <= 0
cst262: y#57 - x#12 <= 0
cst263: x#9 + x#10 + x#12 - y#57 <= 2
cst264: y#58 - x#9 <= 0
cst265: y#58 - x#11 <= 0
cst266: y#58 - x#12 <= 0
cst267: x#9 + x#11 + x#12 - y#58 <= 2
cst268: y#59 - x#10 <= 0
cst269: y#59 - x#11 <= 0
cst270: y#59 - x#12 <= 0
cst271: x#10 + x#11 + x#12 - y#59 <= 2
cst272: y#60 - x#10 <= 0
cst273: y#60 - x#11 <= 0
cst274: y#60 - x#13 <= 0
cst275: x#10 + x#11 + x#13 - y#60 <= 2
cst276: y#61 - x#10 <= 0
cst277: y#61 - x#12 <= 0
cst278: y#61 - x#13 <= 0
cst279: x#10 + x#12 + x#13 - y#61 <= 2
cst280: y#62 - x#11 <= 0
cst281: y#62 - x#12 <= 0
cst282: y#62 - x#13 <= 0
cst283: x#11 + x#12 + x#13 - y#62 <= 2
cst284: y#63 - x#11 <= 0
cst285: y#63 - x#12 <= 0
cst286: y#63 - x#14 <= 0
cst287: x#11 + x#12 + x#14 - y#63 <= 2
cst288: y#64 - x#11 <= 0
cst289: y#64 - x#13 <= 0
cst290: y#64 - x#14 <= 0
cst291: x#11 + x#13 + x#14 - y#64 <= 2
cst292: y#65 - x#12 <= 0
cst293: y#65 - x#13 <= 0
cst294: y#65 - x#14 <= 0
cst295: x#12 + x#13 + x#14 - y#65 <= 2
cst296: y#66 - x#12 <= 0
cst297: y#66 - x#13 <= 0
cst298: y#66 - x#15 <= 0
cst299: x#12 + x#13 + x#15 - y#66 <= 2
cst300: y#67 - x#12 <= 0
cst301: y#67 - x#14 <= 0
cst302: y#67 - x#15 <= 0
cst303: x#12 + x#14 + x#15 - y#67 <= 2
cst304: y#68 - x#13 <= 0
cst305: y#68 - x#14 <= 0
cst306: y#68 - x#15 <= 0
cst307: x#13 + x#14 + x#15 - y#68 <= 2
cst308: y#69 - x#13 <= 0
cst309: y#69 - x#14 <= 0
cst310: y#69 - x#16 <= 0
cst311: x#13 + x#14 + x#16 - y#69 <= 2
cst312: y#70 - x#13 <= 0
cst313: y#70 - x#15 <= 0
cst314: y#70 - x#16 <= 0
cst315: x#13 + x#15 + x#16 - y#70 <= 2
cst316: y#71 - x#14 <= 0
cst317: y#71 - x#15 <= 0
cst318: y#71 - x#16 <= 0
cst319: x#14 + x#15 + x#16 - y#71 <= 2
cst320: y#72 - x#14 <= 0
cst321: y#72 - x#15 <= 0
cst322: y#72 - x#17 <= 0
cst323: x#14 + x#15 + x#17 - y#72 <= 2
cst324: y#73 - x#14 <= 0
cst325: y#73 - x#16 <= 0
cst326: y#73 - x#17 <= 0
cst327: x#14 + x#16 + x#17 - y#73 <= 2
cst328: y#74 - x#15 <= 0
cst329: y#74 - x#16 <= 0
cst330: y#74 - x#17 <= 0
cst331: x#15 + x#16 + x#17 - y#74 <= 2
cst332: y#75 - x#15 <= 0
cst333: y#75 - x#16 <= 0
cst334: y#75 - x#18 <= 0
cst335: x#15 + x#16 + x#18 - y#75 <= 2
cst336: y#76 - x#15 <= 0
cst337: y#76 - x#17 <= 0
cst338: y#76 - x#18 <= 0
cst339: x#15 + x#17 + x#18 - y#76 <= 2
cst340: y#77 - x#16 <= 0
cst341: y#77 - x#17 <= 0
cst342: y#77 - x#18 <= 0
cst343: x#16 + x#17 + x#18 - y#77 <= 2
cst344: y#78 - x#16 <= 0
cst345: y#78 - x#17 <= 0
cst346: y#78 - x#19 <= 0
cst347: x#16 + x#17 + x#19 - y#78 <= 2
cst348: y#79 - x#16 <= 0
cst349: y#79 - x#18 <= 0
cst350: y#79 - x#19 <= 0
cst351: x#16 + x#18 + x#19 - y#79 <= 2
cst352: y#80 - x#17 <= 0
cst353: y#80 - x#18 <= 0
cst354: y#80 - x#19 <= 0
cst355: x#17 + x#18 + x#19 - y#80 <= 2
cst356: y#81 - x#17 <= 0
cst357: y#81 - x#18 <= 0
cst358: y#81 - x#20 <= 0
cst359: x#17 + x#18 + x#20 - y#81 <= 2
cst360: y#82 - x#17 <= 0
cst361: y#82 - x#19 <= 0
cst362: y#82 - x#20 <= 0
cst363: x#17 + x#19 + x#20 - y#82 <= 2
cst364: y#83 - x#18 <= 0
cst365: y#83 - x#19 <= 0
cst366: y#83 - x#20 <= 0
cst367: x#18 + x#19 + x#20 - y#83 <= 2
cst368: y#84 - x#18 <= 0
cst369: y#84 - x#19 <= 0
cst370: y#84 - x#21 <= 0
cst371: x#18 + x#19 + x#21 - y#84 <= 2
cst372: y#85 - x#18 <= 0
cst373: y#85 - x#20 <= 0
cst374: y#85 - x#21 <= 0
cst375: x#18 + x#20 + x#21 - y#85 <= 2
cst376: y#86 - x#19 <= 0
cst377: y#86 - x#20 <= 0
cst378: y#86 - x#21 <= 0
cst379: x#19 + x#20 + x#21 - y#86 <= 2
cst380: y#87 - x#19 <= 0
cst381: y#87 - x#20 <= 0
cst382: y#87 - x#22 <= 0
cst383: x#19 + x#20 + x#22 - y#87 <= 2
cst384: y#88 - x#19 <= 0
cst385: y#88 - x#21 <= 0
cst386: y#88 - x#22 <= 0
cst387: x#19 + x#21 + x#22 - y#88 <= 2
cst388: y#89 - x#20 <= 0
cst389: y#89 - x#21 <= 0
cst390: y#89 - x#22 <= 0
cst391: x#20 + x#21 + x#22 - y#89 <= 2
cst392: y#90 - x#20 <= 0
cst393: y#90 - x#21 <= 0
cst394: y#90 - x#23 <= 0
cst395: x#20 + x#21 + x#23 - y#90 <= 2
cst396: y#91 - x#20 <= 0
cst397: y#91 - x#22 <= 0
cst398: y#91 - x#23 <= 0
cst399: x#20 + x#22 + x#23 - y#91 <= 2
cst400: y#92 - x#21 <= 0
cst401: y#92 - x#22 <= 0
cst402: y#92 - x#23 <= 0
cst403: x#21 + x#22 + x#23 - y#92 <= 2
cst404: y#93 - x#21 <= 0
cst405: y#93 - x#22 <= 0
cst406: y#93 - x#24 <= 0
cst407: x#21 + x#22 + x#24 - y#93 <= 2
cst408: y#94 - x#21 <= 0
cst409: y#94 - x#23 <= 0
cst410: y#94 - x#24 <= 0
cst411: x#21 + x#23 + x#24 - y#94 <= 2
cst412: y#95 - x#22 <= 0
cst413: y#95 - x#23 <= 0
cst414: y#95 - x#24 <= 0
cst415: x#22 + x#23 + x#24 - y#95 <= 2
cst416: y#96 - x#22 <= 0
cst417: y#96 - x#23 <= 0
cst418: y#96 - x#25 <= 0
cst419: x#22 + x#23 + x#25 - y#96 <= 2
cst420: y#97 - x#22 <= 0
cst421: y#97 - x#24 <= 0
cst422: y#97 - x#25 <= 0
cst423: x#22 + x#24 + x#25 - y#97 <= 2
cst424: y#98 - x#23 <= 0
cst425: y#98 - x#24 <= 0
cst426: y#98 - x#25 <= 0
cst427: x#23 + x#24 + x#25 - y#98 <= 2
cst428: y#99 - x#23 <= 0
cst429: y#99 - x#24 <= 0
cst430: y#99 - x#26 <= 0
cst431: x#23 + x#24 + x#26 - y#99 <= 2
cst432: y#100 - x#23 <= 0
cst433: y#100 - x#25 <= 0
cst434: y#100 - x#26 <= 0
cst435: x#23 + x#25 + x#26 - y#100 <= 2
cst436: y#101 - x#24 <= 0
cst437: y#101 - x#25 <= 0
cst438: y#101 - x#26 <= 0
cst439: x#24 + x#25 + x#26 - y#101 <= 2
cst440: y#102 - x#24 <= 0
cst441: y#102 - x#25 <= 0
cst442: y#102 - x#27 <= 0
cst443: x#24 + x#25 + x#27 - y#102 <= 2
cst444: y#103 - x#24 <= 0
cst445: y#103 - x#26 <= 0
cst446: y#103 - x#27 <= 0
cst447: x#24 + x#26 + x#27 - y#103 <= 2
cst448: y#104 - x#25 <= 0
cst449: y#104 - x#26 <= 0
cst450: y#104 - x#27 <= 0
cst451: x#25 + x#26 + x#27 - y#104 <= 2
cst452: y#105 - x#25 <= 0
cst453: y#105 - x#26 <= 0
cst454: y#105 - x#28 <= 0
cst455: x#25 + x#26 + x#28 - y#105 <= 2
cst456: y#106 - x#25 <= 0
cst457: y#106 - x#27 <= 0
cst458: y#106 - x#28 <= 0
cst459: x#25 + x#27 + x#28 - y#106 <= 2
cst460: y#107 - x#26 <= 0
cst461: y#107 - x#27 <= 0
cst462: y#107 - x#28 <= 0
cst463: x#26 + x#27 + x#28 - y#107 <= 2
cst464: y#108 - x#26 <= 0
cst465: y#108 - x#27 <= 0
cst466: y#108 - x#29 <= 0
cst467: x#26 + x#27 + x#29 - y#108 <= 2
cst468: y#109 - x#26 <= 0
cst469: y#109 - x#28 <= 0
cst470: y#109 - x#29 <= 0
cst471: x#26 + x#28 + x#29 - y#109 <= 2
cst472: y#110 - x#27 <= 0
cst473: y#110 - x#28 <= 0
cst474: y#110 - x#29 <= 0
cst475: x#27 + x#28 + x#29 - y#110 <= 2
cst476: y#111 - x#27 <= 0
cst477: y#111 - x#28 <= 0
cst478: y#111 - x#30 <= 0
cst479: x#27 + x#28 + x#30 - y#111 <= 2
cst480: y#112 - x#27 <= 0
cst481: y#112 - x#29 <= 0
cst482: y#112 - x#30 <= 0
cst483: x#27 + x#29 + x#30 - y#112 <= 2
cst484: y#113 - x#28 <= 0
cst485: y#113 - x#29 <= 0
cst486: y#113 - x#30 <= 0
cst487: x#28 + x#29 + x#30 - y#113 <= 2
cst488: y#114 - x#28 <= 0
cst489: y#114 - x#29 <= 0
cst490: y#114 - x#31 <= 0
cst491: x#28 + x#29 + x#31 - y#114 <= 2
cst492: y#115 - x#28 <= 0
cst493: y#115 - x#30 <= 0
cst494: y#115 - x#31 <= 0
cst495: x#28 + x#30 + x#31 - y#115 <= 2
cst496: y#116 - x#29 <= 0
cst497: y#116 - x#30 <= 0
cst498: y#116 - x#31 <= 0
cst499: x#29 + x#30 + x#31 - y#116 <= 2
cst500: y#117 - x#29 <= 0
cst501: y#117 - x#30 <= 0
cst502: y#117 - x#32 <= 0
cst503: x#29 + x#30 + x#32 - y#117 <= 2
cst504: y#118 - x#29 <= 0
cst505: y#118 - x#31 <= 0
cst506: y#118 - x#32 <= 0
cst507: x#29 + x#31 + x#32 - y#118 <= 2
cst508: y#119 - x#30 <= 0
cst509: y#119 - x#31 <= 0
cst510: y#119 - x#32 <= 0
cst511: x#30 + x#31 + x#32 - y#119 <= 2
cst512: y#120 - x#30 <= 0
cst513: y#120 - x#31 <= 0
cst514: y#120 - x#33 <= 0
cst515: x#30 + x#31 + x#33 - y#120 <= 2
cst516: y#121 - x#30 <= 0
cst517: y#121 - x#32 <= 0
cst518: y#121 - x#33 <= 0
cst519: x#30 + x#32 + x#33 - y#121 <= 2
cst520: y#122 - x#31 <= 0
cst521: y#122 - x#32 <= 0
cst522: y#122 - x#33 <= 0
cst523: x#31 + x#32 + x#33 - y#122 <= 2
cst524: y#123 - x#31 <= 0
cst525: y#123 - x#32 <= 0
cst526: y#123 - x#34 <= 0
cst527: x#31 + x#32 + x#34 - y#123 <= 2
cst528: y#124 - x#31 <= 0
cst529: y#124 - x#33 <= 0
cst530: y#124 - x#34 <= 0
cst531: x#31 + x#33 + x#34 - y#124 <= 2
cst532: y#125 - x#32 <= 0
cst533: y#125 - x#33 <= 0
cst534: y#125 - x#34 <= 0
cst535: x#32 + x#33 + x#34 - y#125 <= 2
cst536: y#126 - x#32 <= 0
cst537: y#126 - x#33 <= 0
cst538: y#126 - x#35 <= 0
cst539: x#32 + x#33 + x#35 - y#126 <= 2
cst540: y#127 - x#32 <= 0
cst541: y#127 - x#34 <= 0
cst542: y#127 - x#35 <= 0
cst543: x#32 + x#34 + x#35 - y#127 <= 2
cst544: y#128 - x#33 <= 0
cst545: y#128 - x#34 <= 0
cst546: y#128 - x#35 <= 0
cst547: x#33 + x#34 + x#35 - y#128 <= 2
cst548: y#129 - x#1 <= 0
cst549: y#129 - x#2 <= 0
cst550: x#1 + x#2 - y#129 <= 1
cst551: y#130 - x#1 <= 0
cst552: y#130 - x#3 <= 0
cst553: x#1 + x#3 - y#130 <= 1
cst554: y#131 - x#1 <= 0
cst555: y#131 - x#4 <= 0
cst556: x#1 + x#4 - y#131 <= 1
cst557: y#132 - x#2 <= 0
cst558: y#132 - x#3 <= 0
cst559: x#2 + x#3 - y#132 <= 1
cst560: y#133 - x#2 <= 0
cst561: y#133 - x#4 <= 0
cst562: x#2 + x#4 - y#133 <= 1
cst563: y#134 - x#2 <= 0
cst564: y#134 - x#5 <= 0
cst565: x#2 + x#5 - y#134 <= 1
cst566: y#135 - x#3 <= 0
cst567: y#135 - x#4 <= 0
cst568: x#3 + x#4 - y#135 <= 1
cst569: y#136 - x#3 <= 0
cst570: y#136 - x#5 <= 0
cst571: x#3 + x#5 - y#136 <= 1
cst572: y#137 - x#3 <= 0
cst573: y#137 - x#6 <= 0
cst574: x#3 + x#6 - y#137 <= 1
cst575: y#138 - x#4 <= 0
cst576: y#138 - x#5 <= 0
cst577: x#4 + x#5 - y#138 <= 1
cst578: y#139 - x#4 <= 0
cst579: y#139 - x#6 <= 0
cst580: x#4 + x#6 - y#139 <= 1
cst581: y#140 - x#4 <= 0
cst582: y#140 - x#7 <= 0
cst583: x#4 + x#7 - y#140 <= 1
cst584: y#141 - x#5 <= 0
cst585: y#141 - x#6 <= 0
cst586: x#5 + x#6 - y#141 <= 1
cst587: y#142 - x#5 <= 0
cst588: y#142 - x#7 <= 0
cst589: x#5 + x#7 - y#142 <= 1
cst590: y#143 - x#5 <= 0
cst591: y#143 - x#8 <= 0
cst592: x#5 + x#8 - y#143 <= 1
cst593: y#144 - x#6 <= 0
cst594: y#144 - x#7 <= 0
cst595: x#6 + x#7 - y#144 <= 1
cst596: y#145 - x#6 <= 0
cst597: y#145 - x#8 <= 0
cst598: x#6 + x#8 - y#145 <= 1
cst599: y#146 - x#6 <= 0
cst600: y#146 - x#9 <= 0
cst601: x#6 + x#9 - y#146 <= 1
cst602: y#147 - x#7 <= 0
cst603: y#147 - x#8 <= 0
cst604: x#7 + x#8 - y#147 <= 1
cst605: y#148 - x#7 <= 0
cst606: y#148 - x#9 <= 0
cst607: x#7 + x#9 - y#148 <= 1
cst608: y#149 - x#7 <= 0
cst609: y#149 - x#10 <= 0
cst610: x#7 + x#10 - y#149 <= 1
cst611: y#150 - x#8 <= 0
cst612: y#150 - x#9 <= 0
cst613: x#8 + x#9 - y#150 <= 1
cst614: y#151 - x#8 <= 0
cst615: y#151 - x#10 <= 0
cst616: x#8 + x#10 - y#151 <= 1
cst617: y#152 - x#8 <= 0
cst618: y#152 - x#11 <= 0
cst619: x#8 + x#11 - y#152 <= 1
cst620: y#153 - x#9 <= 0
cst621: y#153 - x#10 <= 0
cst622: x#9 + x#10 - y#153 <= 1
cst623: y#154 - x#9 <= 0
cst624: y#154 - x#11 <= 0
cst625: x#9 + x#11 - y#154 <= 1
cst626: y#155 - x#9 <= 0
cst627: y#155 - x#12 <= 0
cst628: x#9 + x#12 - y#155 <= 1
cst629: y#156 - x#10 <= 0
cst630: y#156 - x#11 <= 0
cst631: x#10 + x#11 - y#156 <= 1
cst632: y#157 - x#10 <= 0
cst633: y#157 - x#12 <= 0
cst634: x#10 + x#12 - y#157 <= 1
cst635: y#158 - x#10 <= 0
cst636: y#158 - x#13 <= 0
cst637: x#10 + x#13 - y#158 <= 1
cst638: y#159 - x#11 <= 0
cst639: y#159 - x#12 <= 0
cst640: x#11 + x#12 - y#159 <= 1
cst641: y#160 - x#11 <= 0
cst642: y#160 - x#13 <= 0
cst643: x#11 + x#13 - y#160 <= 1
cst644: y#161 - x#11 <= 0
cst645: y#161 - x#14 <= 0
cst646: x#11 + x#14 - y#161 <= 1
cst647: y#162 - x#12 <= 0
cst648: y#162 - x#13 <= 0
cst649: x#12 + x#13 - y#162 <= 1
cst650: y#163 - x#12 <= 0
cst651: y#163 - x#14 <= 0
cst652: x#12 + x#14 - y#163 <= 1
cst653: y#164 - x#12 <= 0
cst654: y#164 - x#15 <= 0
cst655: x#12 + x#15 - y#164 <= 1
cst656: y#165 - x#13 <= 0
cst657: y#165 - x#14 <= 0
cst658: x#13 + x#14 - y#165 <= 1
cst659: y#166 - x#13 <= 0
cst660: y#166 - x#15 <= 0
cst661: x#13 + x#15 - y#166 <= 1
cst662: y#167 - x#13 <= 0
cst663: y#167 - x#16 <= 0
cst664: x#13 + x#16 - y#167 <= 1
cst665: y#168 - x#14 <= 0
cst666: y#168 - x#15 <= 0
cst667: x#14 + x#15 - y#168 <= 1
cst668: y#169 - x#14 <= 0
cst669: y#169 - x#16 <= 0
cst670: x#14 + x#16 - y#169 <= 1
cst671: y#170 - x#14 <= 0
cst672: y#170 - x#17 <= 0
cst673: x#14 + x#17 - y#170 <= 1
cst674: y#171 - x#15 <= 0
cst675: y#171 - x#16 <= 0
cst676: x#15 + x#16 - y#171 <= 1
cst677: y#172 - x#15 <= 0
cst678: y#172 - x#17 <= 0
cst679: x#15 + x#17 - y#172 <= 1
cst680: y#173 - x#15 <= 0
cst681: y#173 - x#18 <= 0
cst682: x#15 + x#18 - y#173 <= 1
cst683: y#174 - x#16 <= 0
cst684: y#174 - x#17 <= 0
cst685: x#16 + x#17 - y#174 <= 1
cst686: y#175 - x#16 <= 0
cst687: y#175 - x#18 <= 0
cst688: x#16 + x#18 - y#175 <= 1
cst689: y#176 - x#16 <= 0
cst690: y#176 - x#19 <= 0
cst691: x#16 + x#19 - y#176 <= 1
cst692: y#177 - x#17 <= 0
cst693: y#177 - x#18 <= 0
cst694: x#17 + x#18 - y#177 <= 1
cst695: y#178 - x#17 <= 0
cst696: y#178 - x#19 <= 0
cst697: x#17 + x#19 - y#178 <= 1
cst698: y#179 - x#17 <= 0
cst699: y#179 - x#20 <= 0
cst700: x#17 + x#20 - y#179 <= 1
cst701: y#180 - x#18 <= 0
cst702: y#180 - x#19 <= 0
cst703: x#18 + x#19 - y#180 <= 1
cst704: y#181 - x#18 <= 0
cst705: y#181 - x#20 <= 0
cst706: x#18 + x#20 - y#181 <= 1
cst707: y#182 - x#18 <= 0
cst708: y#182 - x#21 <= 0
cst709: x#18 + x#21 - y#182 <= 1
cst710: y#183 - x#19 <= 0
cst711: y#183 - x#20 <= 0
cst712: x#19 + x#20 - y#183 <= 1
cst713: y#184 - x#19 <= 0
cst714: y#184 - x#21 <= 0
cst715: x#19 + x#21 - y#184 <= 1
cst716: y#185 - x#19 <= 0
cst717: y#185 - x#22 <= 0
cst718: x#19 + x#22 - y#185 <= 1
cst719: y#186 - x#20 <= 0
cst720: y#186 - x#21 <= 0
cst721: x#20 + x#21 - y#186 <= 1
cst722: y#187 - x#20 <= 0
cst723: y#187 - x#22 <= 0
cst724: x#20 + x#22 - y#187 <= 1
cst725: y#188 - x#20 <= 0
cst726: y#188 - x#23 <= 0
cst727: x#20 + x#23 - y#188 <= 1
cst728: y#189 - x#21 <= 0
cst729: y#189 - x#22 <= 0
cst730: x#21 + x#22 - y#189 <= 1
cst731: y#190 - x#21 <= 0
cst732: y#190 - x#23 <= 0
cst733: x#21 + x#23 - y#190 <= 1
cst734: y#191 - x#21 <= 0
cst735: y#191 - x#24 <= 0
cst736: x#21 + x#24 - y#191 <= 1
cst737: y#192 - x#22 <= 0
cst738: y#192 - x#23 <= 0
cst739: x#22 + x#23 - y#192 <= 1
cst740: y#193 - x#22 <= 0
cst741: y#193 - x#24 <= 0
cst742: x#22 + x#24 - y#193 <= 1
cst743: y#194 - x#22 <= 0
cst744: y#194 - x#25 <= 0
cst745: x#22 + x#25 - y#194 <= 1
cst746: y#195 - x#23 <= 0
cst747: y#195 - x#24 <= 0
cst748: x#23 + x#24 - y#195 <= 1
cst749: y#196 - x#23 <= 0
cst750: y#196 - x#25 <= 0
cst751: x#23 + x#25 - y#196 <= 1
cst752: y#197 - x#23 <= 0
cst753: y#197 - x#26 <= 0
cst754: x#23 + x#26 - y#197 <= 1
cst755: y#198 - x#24 <= 0
cst756: y#198 - x#25 <= 0
cst757: x#24 + x#25 - y#198 <= 1
cst758: y#199 - x#24 <= 0
cst759: y#199 - x#26 <= 0
cst760: x#24 + x#26 - y#199 <= 1
cst761: y#200 - x#24 <= 0
cst762: y#200 - x#27 <= 0
cst763: x#24 + x#27 - y#200 <= 1
cst764: y#201 - x#25 <= 0
cst765: y#201 - x#26 <= 0
cst766: x#25 + x#26 - y#201 <= 1
cst767: y#202 - x#25 <= 0
cst768: y#202 - x#27 <= 0
cst769: x#25 + x#27 - y#202 <= 1
cst770: y#203 - x#25 <= 0
cst771: y#203 - x#28 <= 0
cst772: x#25 + x#28 - y#203 <= 1
cst773: y#204 - x#26 <= 0
cst774: y#204 - x#27 <= 0
cst775: x#26 + x#27 - y#204 <= 1
cst776: y#205 - x#26 <= 0
cst777: y#205 - x#28 <= 0
cst778: x#26 + x#28 - y#205 <= 1
cst779: y#206 - x#26 <= 0
cst780: y#206 - x#29 <= 0
cst781: x#26 + x#29 - y#206 <= 1
cst782: y#207 - x#27 <= 0
cst783: y#207 - x#28 <= 0
cst784: x#27 + x#28 - y#207 <= 1
cst785: y#208 - x#27 <= 0
cst786: y#208 - x#29 <= 0
cst787: x#27 + x#29 - y#208 <= 1
cst788: y#209 - x#27 <= 0
cst789: y#209 - x#30 <= 0
cst790: x#27 + x#30 - y#209 <= 1
cst791: y#210 - x#28 <= 0
cst792: y#210 - x#29 <= 0
cst793: x#28 + x#29 - y#210 <= 1
cst794: y#211 - x#28 <= 0
cst795: y#211 - x#30 <= 0
cst796: x#28 + x#30 - y#211 <= 1
cst797: y#212 - x#28 <= 0
cst798: y#212 - x#31 <= 0
cst799: x#28 + x#31 - y#212 <= 1
cst800: y#213 - x#29 <= 0
cst801: y#213 - x#30 <= 0
cst802: x#29 + x#30 - y#213 <= 1
cst803: y#214 - x#29 <= 0
cst804: y#214 - x#31 <= 0
cst805: x#29 + x#31 - y#214 <= 1
cst806: y#215 - x#29 <= 0
cst807: y#215 - x#32 <= 0
cst808: x#29 + x#32 - y#215 <= 1
cst809: y#216 - x#30 <= 0
cst810: y#216 - x#31 <= 0
cst811: x#30 + x#31 - y#216 <= 1
cst812: y#217 - x#30 <= 0
cst813: y#217 - x#32 <= 0
cst814: x#30 + x#32 - y#217 <= 1
cst815: y#218 - x#30 <= 0
cst816: y#218 - x#33 <= 0
cst817: x#30 + x#33 - y#218 <= 1
cst818: y#219 - x#31 <= 0
cst819: y#219 - x#32 <= 0
cst820: x#31 + x#32 - y#219 <= 1
cst821: y#220 - x#31 <= 0
cst822: y#220 - x#33 <= 0
cst823: x#31 + x#33 - y#220 <= 1
cst824: y#221 - x#31 <= 0
cst825: y#221 - x#34 <= 0
cst826: x#31 + x#34 - y#221 <= 1
cst827: y#222 - x#32 <= 0
cst828: y#222 - x#33 <= 0
cst829: x#32 + x#33 - y#222 <= 1
cst830: y#223 - x#32 <= 0
cst831: y#223 - x#34 <= 0
cst832: x#32 + x#34 - y#223 <= 1
cst833: y#224 - x#32 <= 0
cst834: y#224 - x#35 <= 0
cst835: x#32 + x#35 - y#224 <= 1
cst836: y#225 - x#33 <= 0
cst837: y#225 - x#34 <= 0
cst838: x#33 + x#34 - y#225 <= 1
cst839: y#226 - x#33 <= 0
cst840: y#226 - x#35 <= 0
cst841: x#33 + x#35 - y#226 <= 1
cst842: y#227 - x#34 <= 0
cst843: y#227 - x#35 <= 0
cst844: x#34 + x#35 - y#227 <= 1
cst845: y#228 - x#1 <= 0
cst846: x#1 - y#228 <= 0
cst847: y#229 - x#2 <= 0
cst848: x#2 - y#229 <= 0
cst849: y#230 - x#3 <= 0
cst850: x#3 - y#230 <= 0
cst851: y#231 - x#4 <= 0
cst852: x#4 - y#231 <= 0
cst853: y#232 - x#5 <= 0
cst854: x#5 - y#232 <= 0
cst855: y#233 - x#6 <= 0
cst856: x#6 - y#233 <= 0
cst857: y#234 - x#7 <= 0
cst858: x#7 - y#234 <= 0
cst859: y#235 - x#8 <= 0
cst860: x#8 - y#235 <= 0
cst861: y#236 - x#9 <= 0
cst862: x#9 - y#236 <= 0
cst863: y#237 - x#10 <= 0
cst864: x#10 - y#237 <= 0
cst865: y#238 - x#11 <= 0
cst866: x#11 - y#238 <= 0
cst867: y#239 - x#12 <= 0
cst868: x#12 - y#239 <= 0
cst869: y#240 - x#13 <= 0
cst870: x#13 - y#240 <= 0
cst871: y#241 - x#14 <= 0
cst872: x#14 - y#241 <= 0
cst873: y#242 - x#15 <= 0
cst874: x#15 - y#242 <= 0
cst875: y#243 - x#16 <= 0
cst876: x#16 - y#243 <= 0
cst877: y#244 - x#17 <= 0
cst878: x#17 - y#244 <= 0
cst879: y#245 - x#18 <= 0
cst880: x#18 - y#245 <= 0
cst881: y#246 - x#19 <= 0
cst882: x#19 - y#246 <= 0
cst883: y#247 - x#20 <= 0
cst884: x#20 - y#247 <= 0
cst885: y#248 - x#21 <= 0
cst886: x#21 - y#248 <= 0
cst887: y#249 - x#22 <= 0
cst888: x#22 - y#249 <= 0
cst889: y#250 - x#23 <= 0
cst890: x#23 - y#250 <= 0
cst891: y#251 - x#24 <= 0
cst892: x#24 - y#251 <= 0
cst893: y#252 - x#25 <= 0
cst894: x#25 - y#252 <= 0
cst895: y#253 - x#26 <= 0
cst896: x#26 - y#253 <= 0
cst897: y#254 - x#27 <= 0
cst898: x#27 - y#254 <= 0
cst899: y#255 - x#28 <= 0
cst900: x#28 - y#255 <= 0
cst901: y#256 - x#29 <= 0
cst902: x#29 - y#256 <= 0
cst903: y#257 - x#30 <= 0
cst904: x#30 - y#257 <= 0
cst905: y#258 - x#31 <= 0
cst906: x#31 - y#258 <= 0
cst907: y#259 - x#32 <= 0
cst908: x#32 - y#259 <= 0
cst909: y#260 - x#33 <= 0
cst910: x#33 - y#260 <= 0
cst911: y#261 - x#34 <= 0
cst912: x#34 - y#261 <= 0
cst913: y#262 - x#35 <= 0
cst914: x#35 - y#262 <= 0
Bounds
z free
Binary
x#1 x#2 x#3 x#4 x#5 x#6 x#7 x#8 x#9 x#10 x#11 x#12 x#13 x#14 x#15 x#16 x#17 x#18 x#19 x#20 x#21 x#22 x#23 x#24 x#25 x#26 x#27 x#28 x#29 x#30 x#31 x#32 x#33 x#34 x#35y#0 y#1 y#2 y#3 y#4 y#5 y#6 y#7 y#8 y#9 y#10 y#11 y#12 y#13 y#14 y#15 y#16 y#17 y#18 y#19 y#20 y#21 y#22 y#23 y#24 y#25 y#26 y#27 y#28 y#29 y#30 y#31 y#32 y#33 y#34 y#35 y#36 y#37 y#38 y#39 y#40 y#41 y#42 y#43 y#44 y#45 y#46 y#47 y#48 y#49 y#50 y#51 y#52 y#53 y#54 y#55 y#56 y#57 y#58 y#59 y#60 y#61 y#62 y#63 y#64 y#65 y#66 y#67 y#68 y#69 y#70 y#71 y#72 y#73 y#74 y#75 y#76 y#77 y#78 y#79 y#80 y#81 y#82 y#83 y#84 y#85 y#86 y#87 y#88 y#89 y#90 y#91 y#92 y#93 y#94 y#95 y#96 y#97 y#98 y#99 y#100 y#101 y#102 y#103 y#104 y#105 y#106 y#107 y#108 y#109 y#110 y#111 y#112 y#113 y#114 y#115 y#116 y#117 y#118 y#119 y#120 y#121 y#122 y#123 y#124 y#125 y#126 y#127 y#128 y#129 y#130 y#131 y#132 y#133 y#134 y#135 y#136 y#137 y#138 y#139 y#140 y#141 y#142 y#143 y#144 y#145 y#146 y#147 y#148 y#149 y#150 y#151 y#152 y#153 y#154 y#155 y#156 y#157 y#158 y#159 y#160 y#161 y#162 y#163 y#164 y#165 y#166 y#167 y#168 y#169 y#170 y#171 y#172 y#173 y#174 y#175 y#176 y#177 y#178 y#179 y#180 y#181 y#182 y#183 y#184 y#185 y#186 y#187 y#188 y#189 y#190 y#191 y#192 y#193 y#194 y#195 y#196 y#197 y#198 y#199 y#200 y#201 y#202 y#203 y#204 y#205 y#206 y#207 y#208 y#209 y#210 y#211 y#212 y#213 y#214 y#215 y#216 y#217 y#218 y#219 y#220 y#221 y#222 y#223 y#224 y#225 y#226 y#227 y#228 y#229 y#230 y#231 y#232 y#233 y#234 y#235 y#236 y#237 y#238 y#239 y#240 y#241 y#242 y#243 y#244 y#245 y#246 y#247 y#248 y#249 y#250 y#251 y#252 y#253 y#254 y#255 y#256 y#257 y#258 y#259 y#260 y#261 y#262
End
